p cnf 35 182
c max 8 9 10 11 16 17 18 19 24 25 26 27 32 33 34 35 0
c ind 1 2 3 4 5 6 7 12 13 14 15 20 21 22 23 28 29 30 31 0
c p weight 3 -1 0
c p weight -3 1 0
c p weight 6 -1 0
c p weight -6 1 0
c p weight 7 0.70710678118654752440084436210485 0
c p weight -7 1 0
c p weight 14 -1 0
c p weight -14 1 0
c p weight 15 0.70710678118654752440084436210485 0
c p weight -15 1 0
c p weight 22 -1 0
c p weight -22 1 0
c p weight 23 0.70710678118654752440084436210485 0
c p weight -23 1 0
c p weight 30 -1 0
c p weight -30 1 0
c p weight 31 0.70710678118654752440084436210485 0
c p weight -31 1 0
3 -2 0
-3 2 0
-6 -8 0
4 -8 -1 0
-4 -8 1 0
5 -8 -2 0
-5 -8 2 0
-7 -8 0
-6 -9 1 0
-6 -9 2 0
6 -9 -1 -2 0
4 -9 -2 0
-4 -9 2 0
5 -9 -1 0
-5 -9 1 0
-7 -9 0
-6 5 -10 0
-6 -10 1 0
-6 -10 -2 0
6 -5 -10 -1 2 0
-6 -11 1 0
-6 -11 2 0
-6 -5 -11 0
6 5 -11 -1 -2 0
4 -10 -1 0
4 -11 -1 0
-4 -10 1 0
-4 -11 1 0
5 -10 1 -2 0
5 -11 1 -2 0
-5 -10 1 2 0
-5 -11 1 2 0
7 -10 -1 0
7 -11 -1 0
-7 -10 1 0
-7 -11 1 0
8 9 10 11 0
-8 -9 0
-8 -10 0
-8 -11 0
-9 -10 0
-9 -11 0
-10 -11 0
-14 -16 0
12 -16 -4 0
-12 -16 4 0
13 -16 -5 0
-13 -16 5 0
-15 -16 0
-14 -17 4 0
-14 -17 5 0
14 -17 -4 -5 0
12 -17 -5 0
-12 -17 5 0
13 -17 -4 0
-13 -17 4 0
-15 -17 0
-14 13 -18 0
-14 -18 4 0
-14 -18 -5 0
14 -13 -18 -4 5 0
-14 -19 4 0
-14 -19 5 0
-14 -13 -19 0
14 13 -19 -4 -5 0
12 -18 -4 0
12 -19 -4 0
-12 -18 4 0
-12 -19 4 0
13 -18 4 -5 0
13 -19 4 -5 0
-13 -18 4 5 0
-13 -19 4 5 0
15 -18 -4 0
15 -19 -4 0
-15 -18 4 0
-15 -19 4 0
16 17 18 19 0
-16 -17 0
-16 -18 0
-16 -19 0
-17 -18 0
-17 -19 0
-18 -19 0
-17 -9 0
-19 -10 0
-18 -11 0
-8 16 0
-22 -24 0
20 -24 -12 0
-20 -24 12 0
21 -24 -13 0
-21 -24 13 0
-23 -24 0
-22 -25 12 0
-22 -25 13 0
22 -25 -12 -13 0
20 -25 -13 0
-20 -25 13 0
21 -25 -12 0
-21 -25 12 0
-23 -25 0
-22 21 -26 0
-22 -26 12 0
-22 -26 -13 0
22 -21 -26 -12 13 0
-22 -27 12 0
-22 -27 13 0
-22 -21 -27 0
22 21 -27 -12 -13 0
20 -26 -12 0
20 -27 -12 0
-20 -26 12 0
-20 -27 12 0
21 -26 12 -13 0
21 -27 12 -13 0
-21 -26 12 13 0
-21 -27 12 13 0
23 -26 -12 0
23 -27 -12 0
-23 -26 12 0
-23 -27 12 0
24 25 26 27 0
-24 -25 0
-24 -26 0
-24 -27 0
-25 -26 0
-25 -27 0
-26 -27 0
-25 -17 0
-27 -18 0
-26 -19 0
-16 24 0
-30 -32 0
28 -32 -20 0
-28 -32 20 0
29 -32 -21 0
-29 -32 21 0
-31 -32 0
-30 -33 20 0
-30 -33 21 0
30 -33 -20 -21 0
28 -33 -21 0
-28 -33 21 0
29 -33 -20 0
-29 -33 20 0
-31 -33 0
-30 29 -34 0
-30 -34 20 0
-30 -34 -21 0
30 -29 -34 -20 21 0
-30 -35 20 0
-30 -35 21 0
-30 -29 -35 0
30 29 -35 -20 -21 0
28 -34 -20 0
28 -35 -20 0
-28 -34 20 0
-28 -35 20 0
29 -34 20 -21 0
29 -35 20 -21 0
-29 -34 20 21 0
-29 -35 20 21 0
31 -34 -20 0
31 -35 -20 0
-31 -34 20 0
-31 -35 20 0
32 33 34 35 0
-32 -33 0
-32 -34 0
-32 -35 0
-33 -34 0
-33 -35 0
-34 -35 0
-33 -25 0
-35 -26 0
-34 -27 0
-24 32 0
28 -1 0
-28 1 0
29 -2 0
-29 2 0
